&control
	title = 'Verlet calculation for GaAs',
	calculation = 'cp',
	restart_mode = 'reset_counters',
	ndr = 51,
	ndw = 52,
	nstep = 2000, 
	iprint = 20,
	isave = 100,
	tstress = .TRUE.,
	tprnfor = .TRUE.,
	dt = 5.0d0,
	etot_conv_thr = 1.d-4,
	ekin_conv_thr = 1.d-6,
	prefix = 'GaAs',
	pseudo_dir = './',
	outdir = '/OUTPUT/',
/

&system
	ibrav = 2,
	celldm(1) = 7.6836264,
	nat = 2,
	ntyp = 2,
	nbnd = 36,
	ecutwfc = 33,
	ecutrho = 180
	nr1b = 20, nr2b = 20, nr3b = 20,
	noncolin=.true.,
	lspinorb=.true.,
/

&electrons
	emass = 400.d0,
	emass_cutoff = 2.5d0,
	electron_dynamics = 'verlet'
	electron_velocities = 'zero'
	ortho_eps = 1d-11

/

&ions
	ion_dynamics = 'verlet'
	ion_velocities = 'zero'
/

&cell
	cell_dynamics = 'none',
	press = 0.0d0,
/

ATOMIC_SPECIES
Ga 69.723d0 Ga.rel-pbe-dn-rrkjus_psl.0.2.UPF
As 74.922d0 As.rel-pbe-n-rrkjus_psl.0.2.UPF

ATOMIC_POSITIONS
Ga	0.00	0.00	0.00
As	0.75	0.75	0.75
